Output/Exact/Random_010_02_5.lp.out
CPU Time for Parsing input: 0.001475s (0.001475s total since program start)
CPU Time for solving: 0.01116s (0.012635s total since program start)

Value of objective function: 36.00000000
